42	0

0	2	2	3
5	1	4
9	1	4
9	1	5
10	1	6
9	1	7
3	1	8
3	2	9	10
9	1	11
6	1	11
4	1	12
1	2	13	15
8	2	14	16
3	1	17
10	2	16	17
4	1	18
3	1	18
5	1	19
4	1	20
5	2	21	22
5	2	23	24
5	2	23	24
3	1	26
1	2	25	26
10	1	27
9	1	27
2	2	28	31
2	1	29
2	2	30	32
9	1	33
8	1	32
5	1	33
2	1	34
1	2	35	36
6	1	37
9	1	37
1	1	38
4	2	39	40
6	1	41
7	1	42
5	1	42
0	0
